000 000 000 000 000 -99 000 000 -99 -99 -99 -99 -99 -99 -99 -99 -99 -99 002 001 000 -99 -99 000 000 000 -99 -99 -99 -99 000
000 000 000 000 000 000 000 000 -99 -99 -99 -99 -99 -99 000 000 -99 -99 -99 001 000 000 -99 -99 000 000 000 -99 -99 -99 000
-99 000 000 000 000 000 000 000 000 000 -99 -99 -99 -99 000 000 -99 -99 -99 -99 000 000 000 -99 -99 000 000 000 000 -99 -99
-99 -99 000 000 000 000 000 -99 000 000 -99 000 000 -99 000 -99 -99 -99 -99 -99 000 000 000 -99 -99 000 000 000 -99 -99 -99
000 000 000 000 000 000 000 000 000 000 -99 000 000 000 -99 000 -99 -99 -99 -99 000 000 000 000 000 000 000 000 -99 -99 -99
000 000 000 000 000 000 000 000 000 000 -99 -99 000 000 000 000 -99 -99 -99 -99 000 000 000 000 000 000 -99 -99 -99 -99 -99
000 000 000 000 000 000 000 000 000 000 -99 -99 000 000 000 000 -99 -99 -99 -99 000 000 000 000 000 000 -99 -99 -99 -99 -99
000 000 000 000 000 000 000 000 000 000 -99 -99 000 000 -99 -99 000 000 000 -99 -99 000 000 -99 000 -99 -99 -99 -99 000 -99
000 000 000 000 000 000 000 -99 000 000 000 000 -99 -99 -99 -99 000 000 -99 -99 -99 000 000 -99 000 -99 -99 -99 -99 000 000
000 000 000 000 000 000 -99 -99 000 000 000 000 000 -99 000 -99 -99 000 000 -99 -99 000 000 -99 -99 -99 000 000 -99 000 000
000 000 000 000 000 000 -99 000 000 000 000 000 000 -99 -99 000 -99 -99 000 000 -99 000 000 -99 -99 -99 000 000 -99 000 000
000 000 000 000 000 -99 -99 000 000 000 000 000 000 -99 -99 000 000 000 000 000 -99 000 -99 000 000 -99 -99 000 000 000 000
000 000 000 000 000 000 000 000 000 000 000 000 000 -99 -99 000 000 000 000 000 000 -99 -99 -99 000 000 -99 -99 000 000 000
000 000 000 000 000 000 000 000 -99 -99 000 000 -99 -99 -99 000 000 000 000 000 -99 000 -99 -99 000 000 -99 -99 -99 000 000
000 000 000 000 000 000 000 000 000 -99 -99 -99 -99 000 -99 -99 000 -99 000 000 -99 -99 -99 -99 000 000 000 000 000 000 000
000 -99 000 000 000 000 000 000 000 -99 -99 -99 -99 000 -99 -99 -99 -99 000 -99 -99 -99 000 000 000 000 000 000 000 000 000
000 -99 000 000 000 000 000 000 000 -99 -99 -99 -99 000 -99 -99 000 -99 000 000 000 -99 000 000 000 000 000 000 000 000 -99
000 000 -99 -99 -99 -99 000 000 000 -99 -99 -99 -99 000 -99 -99 000 000 000 000 000 000 000 000 000 000 000 000 000 000 000
000 000 000 000 -99 -99 -99 000 000 -99 -99 -99 -99 -99 -99 -99 000 000 000 000 000 000 001 000 000 000 001 000 000 000 000
000 000 000 000 000 000 000 000 000 000 -99 -99 -99 -99 -99 -99 000 000 000 000 002 002 003 010 009 002 001 001 001 000 000
000 000 000 000 000 000 -99 000 000 000 -99 -99 -99 -99 -99 -99 000 000 000 001 003 003 005 018 007 008 002 003 005 008 008
000 000 000 000 000 000 -99 000 000 000 -99 -99 -99 -99 -99 000 000 000 000 001 003 005 004 022 011 014 005 007 011 022 018
000 000 000 000 000 000 000 000 000 000 000 -99 -99 000 000 000 000 000 000 002 004 007 005 019 018 025 020 019 037 089 047
000 000 000 000 -99 000 000 000 000 -99 -99 -99 -99 000 000 000 000 000 000 002 003 005 008 017 027 028 043 040 058 134 082
000 000 000 000 000 000 000 000 000 -99 -99 -99 000 000 000 000 000 000 001 001 003 004 009 021 035 029 058 050 028 085 100
000 000 000 000 000 000 000 000 000 -99 -99 000 000 000 000 000 000 000 001 001 003 004 023 050 058 050 064 066 023 013 052
000 000 -99 000 000 000 000 000 000 000 000 000 001 001 000 000 000 000 001 001 002 002 008 064 075 056 042 031 024 010 025
000 000 000 000 000 000 000 000 000 000 000 001 002 000 000 000 000 000 000 000 001 001 008 034 077 041 034 028 015 005 006
000 000 000 -99 000 000 000 000 000 000 000 000 001 000 000 000 -99 000 000 000 001 001 006 012 018 014 011 008 008 004 002
000 000 000 000 000 000 000 000 000 000 000 000 000 000 000 -99 000 000 000 000 001 001 001 002 002 003 007 006 002 -99 001
000 000 000 000 000 000 000 000 000 000 -99 000 000 -99 000 000 000 000 000 000 001 000 -99 001 000 001 003 004 001 -99 -99
000 000 000 000 000 000 000 000 000 -99 -99 -99 -99 000 000 -99 000 000 000 000 000 000 000 000 000 000 002 001 001 -99 000
000 000 000 000 000 000 000 000 000 000 -99 -99 -99 -99 000 -99 000 000 000 000 -99 000 000 000 000 000 000 001 000 -99 000
-99 -99 000 000 000 000 000 000 000 000 -99 -99 -99 -99 -99 000 000 000 000 -99 -99 000 000 000 000 000 000 001 000 000 000
-99 -99 000 000 000 000 000 000 000 000 -99 -99 -99 -99 000 000 000 000 -99 000 -99 000 000 000 000 000 000 000 000 000 000
000 -99 -99 000 000 -99 000 -99 000 -99 -99 -99 000 000 000 000 000 000 000 000 000 000 -99 000 000 000 -99 000 000 000 000
000 000 -99 000 000 -99 -99 -99 000 000 -99 -99 000 000 000 000 000 000 000 000 000 000 -99 000 000 000 -99 000 000 000 000
000 -99 000 000 000 -99 -99 -99 000 -99 -99 -99 000 000 000 000 000 000 000 000 000 -99 -99 000 000 000 000 000 000 000 000
000 -99 000 000 000 000 -99 -99 -99 -99 -99 -99 000 000 000 000 000 000 000 000 000 -99 -99 -99 000 000 000 000 -99 000 -99
000 000 000 000 000 -99 -99 -99 -99 -99 -99 -99 000 000 000 000 000 -99 -99 -99 000 -99 000 000 000 000 -99 -99 -99 -99 -99
000 000 000 000 000 -99 -99 -99 -99 -99 000 000 000 000 000 000 -99 -99 -99 000 000 -99 000 000 -99 000 000 -99 -99 -99 -99
000 000 -99 000 -99 -99 -99 -99 -99 000 000 000 000 000 000 000 -99 -99 -99 000 000 000 000 -99 000 -99 -99 -99 -99 000 -99
-99 -99 -99 -99 -99 -99 -99 -99 -99 000 000 000 000 000 000 000 000 000 -99 000 000 000 -99 -99 000 000 -99 -99 -99 -99 -99
000 -99 -99 -99 -99 -99 -99 -99 -99 -99 -99 000 000 000 000 000 000 000 000 000 000 000 -99 -99 000 000 -99 -99 -99 -99 -99
000 -99 -99 -99 -99 -99 -99 -99 -99 -99 -99 000 000 -99 000 000 000 000 000 000 -99 -99 -99 -99 000 -99 -99 -99 -99 -99 -99
000 -99 -99 -99 -99 -99 -99 -99 -99 -99 000 000 000 000 000 -99 000 000 000 000 -99 -99 -99 000 000 -99 -99 -99 -99 -99 -99
000 000 -99 -99 -99 -99 -99 -99 -99 -99 -99 000 -99 -99 000 -99 -99 000 000 000 -99 -99 000 000 -99 -99 -99 -99 -99 -99 -99
000 000 -99 -99 -99 -99 -99 -99 000 000 -99 -99 -99 -99 -99 -99 -99 000 000 -99 -99 -99 000 000 000 -99 -99 -99 -99 -99 -99
000 -99 -99 -99 -99 -99 -99 -99 000 000 -99 -99 -99 000 000 -99 -99 000 000 -99 -99 000 000 000 -99 -99 -99 -99 -99 -99 -99
-99 -99 -99 -99 -99 -99 -99 -99 000 000 -99 -99 -99 000 000 -99 000 000 000 -99 -99 000 -99 -99 -99 -99 -99 000 -99 -99 -99
-99 -99 -99 -99 -99 -99 -99 -99 -99 -99 -99 -99 000 000 000 -99 000 000 -99 -99 000 -99 -99 -99 -99 -99 -99 -99 -99 -99 -99
-99 -99 -99 -99 -99 -99 -99 -99 -99 -99 -99 -99 000 000 -99 -99 -99 000 -99 000 000 -99 -99 -99 -99 -99 -99 -99 -99 -99 -99
-99 -99 -99 -99 -99 -99 -99 -99 -99 -99 -99 -99 -99 -99 -99 -99 -99 -99 -99 000 000 -99 -99 -99 -99 -99 -99 -99 -99 -99 -99
-99 -99 -99 -99 -99 -99 -99 -99 -99 -99 -99 -99 -99 -99 -99 -99 -99 -99 -99 -99 -99 -99 -99 -99 -99 -99 -99 -99 -99 -99 -99
-99 -99 -99 -99 -99 -99 -99 -99 -99 -99 -99 -99 -99 -99 -99 -99 -99 -99 -99 -99 -99 -99 -99 -99 -99 -99 -99 -99 -99 -99 -99
